
Gurobi 8.1.1 (mac64, Python) logging started Wed Mar 11 12:33:45 2020

Academic license - for non-commercial use only

Gurobi 8.1.1 (mac64, Python) logging started Wed Mar 11 12:37:01 2020

Academic license - for non-commercial use only

Gurobi 8.1.1 (mac64, Python) logging started Wed Mar 11 12:37:38 2020

Academic license - for non-commercial use only

Gurobi 8.1.1 (mac64, Python) logging started Wed Mar 11 12:52:53 2020

Academic license - for non-commercial use only

Gurobi 8.1.1 (mac64, Python) logging started Wed Mar 11 12:53:43 2020

Academic license - for non-commercial use only

Gurobi 8.1.1 (mac64, Python) logging started Wed Mar 11 12:54:22 2020

Academic license - for non-commercial use only

Gurobi 8.1.1 (mac64, Python) logging started Wed Mar 11 12:56:04 2020

Academic license - for non-commercial use only

Gurobi 8.1.1 (mac64, Python) logging started Wed Mar 11 12:59:34 2020

Academic license - for non-commercial use only

Gurobi 8.1.1 (mac64, Python) logging started Wed Mar 11 13:00:43 2020

Academic license - for non-commercial use only

Gurobi 8.1.1 (mac64, Python) logging started Wed Mar 11 13:03:02 2020

Academic license - for non-commercial use only

Gurobi 8.1.1 (mac64, Python) logging started Wed Mar 11 13:09:40 2020

Academic license - for non-commercial use only

Gurobi 8.1.1 (mac64, Python) logging started Wed Mar 11 13:10:15 2020

Academic license - for non-commercial use only

Gurobi 8.1.1 (mac64, Python) logging started Wed Mar 11 18:22:02 2020

Academic license - for non-commercial use only

Gurobi 8.1.1 (mac64, Python) logging started Wed Mar 11 19:39:54 2020

Academic license - for non-commercial use only

Gurobi 8.1.1 (mac64, Python) logging started Wed Mar 11 19:40:17 2020

Academic license - for non-commercial use only

Gurobi 8.1.1 (mac64, Python) logging started Wed Mar 11 19:40:46 2020

Academic license - for non-commercial use only

Gurobi 8.1.1 (mac64, Python) logging started Wed Mar 11 19:52:14 2020

Academic license - for non-commercial use only

Gurobi 8.1.1 (mac64, Python) logging started Wed Mar 11 20:03:13 2020

Academic license - for non-commercial use only

Gurobi 8.1.1 (mac64, Python) logging started Wed Mar 11 20:15:01 2020

Academic license - for non-commercial use only

Gurobi 8.1.1 (mac64, Python) logging started Wed Mar 11 20:21:14 2020

Academic license - for non-commercial use only

Gurobi 8.1.1 (mac64, Python) logging started Wed Mar 11 20:22:45 2020

Academic license - for non-commercial use only

Gurobi 8.1.1 (mac64, Python) logging started Wed Mar 11 20:23:52 2020

Academic license - for non-commercial use only

Gurobi 8.1.1 (mac64, Python) logging started Wed Mar 11 20:24:14 2020

Academic license - for non-commercial use only

Gurobi 8.1.1 (mac64, Python) logging started Wed Mar 11 20:28:17 2020

Academic license - for non-commercial use only

Gurobi 8.1.1 (mac64, Python) logging started Wed Mar 11 20:31:47 2020

Academic license - for non-commercial use only

Gurobi 8.1.1 (mac64, Python) logging started Wed Mar 11 22:01:04 2020

Academic license - for non-commercial use only

Gurobi 8.1.1 (mac64, Python) logging started Wed Mar 11 22:14:44 2020

Academic license - for non-commercial use only

Gurobi 8.1.1 (mac64, Python) logging started Wed Mar 11 22:25:07 2020

Academic license - for non-commercial use only

Gurobi 8.1.1 (mac64, Python) logging started Wed Mar 11 22:25:31 2020

Academic license - for non-commercial use only

Gurobi 8.1.1 (mac64, Python) logging started Wed Mar 11 22:33:25 2020

Academic license - for non-commercial use only

Gurobi 8.1.1 (mac64, Python) logging started Wed Mar 11 22:38:53 2020

Academic license - for non-commercial use only
Warning for adding constraints: zero or small (< 1e-13) coefficients, ignored
Warning for adding constraints: zero or small (< 1e-13) coefficients, ignored
Warning for adding constraints: zero or small (< 1e-13) coefficients, ignored
Warning for adding constraints: zero or small (< 1e-13) coefficients, ignored

Gurobi 8.1.1 (mac64, Python) logging started Wed Mar 11 22:39:08 2020

Academic license - for non-commercial use only
Warning for adding constraints: zero or small (< 1e-13) coefficients, ignored
Warning for adding constraints: zero or small (< 1e-13) coefficients, ignored
Warning for adding constraints: zero or small (< 1e-13) coefficients, ignored
Warning for adding constraints: zero or small (< 1e-13) coefficients, ignored
Warning for adding constraints: zero or small (< 1e-13) coefficients, ignored

Gurobi 8.1.1 (mac64, Python) logging started Wed Mar 11 22:40:14 2020

Academic license - for non-commercial use only

Gurobi 8.1.1 (mac64, Python) logging started Wed Mar 11 22:41:14 2020

Academic license - for non-commercial use only

Gurobi 8.1.1 (mac64, Python) logging started Wed Mar 11 22:50:12 2020

Academic license - for non-commercial use only

Gurobi 8.1.1 (mac64, Python) logging started Wed Mar 11 23:04:58 2020

Academic license - for non-commercial use only

Gurobi 8.1.1 (mac64, Python) logging started Wed Mar 11 23:14:53 2020

Academic license - for non-commercial use only

Gurobi 8.1.1 (mac64, Python) logging started Wed Mar 11 23:15:06 2020

Academic license - for non-commercial use only
